; redis-py :: corpus-study/repo_src/redis-py/redis/asyncio/multidb/client.py :: LOCK 'MultiDBClient._hc_lock' :: naive encoding (verdict: unsat)
; Generated by snf-pipeline (encoder.py) -- run with any
; SMT-LIB2-compliant solver, e.g. `z3 redis-py__corpus-study_repo_src_redis-py_redis_asyncio_multidb_client.py__MultiDBClient._hc_lock__naive.smt2`
; benchmark generated from python API
(set-info :status unknown)
(assert
 false)
(check-sat)
